
Gurobi 10.0.1 (linux64) logging started Fri Oct 27 21:21:51 2023

Set parameter LogFile to value "/scratch/user/s4736535/Thesis/ieee_cis_solar/Opt Results/columnGeneration/GurobiLogs/Gurobi Log 1.txt"
Set parameter MIPGap to value 0.01
Set parameter TimeLimit to value 600
Set parameter Threads to value 12
Gurobi Optimizer version 10.0.1 build v10.0.1rc0 (linux64)

CPU model: AMD EPYC 9454 48-Core Processor, instruction set [SSE2|AVX|AVX2|AVX512]
Thread count: 96 physical cores, 192 logical processors, using up to 12 threads

Optimize a model with 29590 rows, 84890 columns and 4814089 nonzeros
Model fingerprint: 0xd086e620
Variable types: 11520 continuous, 73370 integer (73370 binary)
Coefficient statistics:
  Matrix range     [1e+00, 7e+02]
  Objective range  [2e-05, 2e+02]
  Bounds range     [1e+00, 1e+00]
  RHS range        [1e+00, 7e+02]
Presolve removed 14290 rows and 26734 columns (presolve time = 5s) ...
Presolve removed 25811 rows and 44556 columns
Presolve time: 7.61s
Presolved: 3779 rows, 40334 columns, 2603970 nonzeros
Variable types: 0 continuous, 40334 integer (40331 binary)
Deterministic concurrent LP optimizer: primal simplex, dual simplex, and barrier
Showing barrier log only...

Root barrier log...


Barrier performed 0 iterations in 8.89 seconds (26.47 work units)
Barrier solve interrupted - model solved by another algorithm

Concurrent spin time: 0.02s

Solved with dual simplex

Root relaxation: objective 1.634321e+04, 494 iterations, 0.39 seconds (0.81 work units)

    Nodes    |    Current Node    |     Objective Bounds      |     Work
 Expl Unexpl |  Obj  Depth IntInf | Incumbent    BestBd   Gap | It/Node Time

     0     0 16343.2059    0  109          - 16343.2059      -     -    9s
     0     0 16359.5869    0  127          - 16359.5869      -     -   10s
H    0     0                    16793.209060 16359.5869  2.58%     -   10s
H    0     0                    16719.618290 16359.5869  2.15%     -   11s
H    0     0                    16693.036475 16359.5869  2.00%     -   12s
     0     0 16361.0128    0  140 16693.0365 16361.0128  1.99%     -   13s
     0     0 16361.3647    0  139 16693.0365 16361.3647  1.99%     -   13s
     0     0 16361.3686    0  141 16693.0365 16361.3686  1.99%     -   13s
     0     0 16367.3952    0  142 16693.0365 16367.3952  1.95%     -   14s
H    0     0                    16664.804645 16367.3952  1.78%     -   15s
     0     0 16368.2658    0  144 16664.8046 16368.2658  1.78%     -   15s
     0     0 16368.7184    0  150 16664.8046 16368.7184  1.78%     -   15s
     0     0 16368.7479    0  152 16664.8046 16368.7479  1.78%     -   15s
     0     0 16368.7860    0  158 16664.8046 16368.7860  1.78%     -   15s
     0     0 16368.8677    0  150 16664.8046 16368.8677  1.78%     -   15s
     0     0 16368.8750    0  148 16664.8046 16368.8750  1.78%     -   15s
     0     0 16368.8785    0  149 16664.8046 16368.8785  1.78%     -   16s
     0     0 16374.0779    0  143 16664.8046 16374.0779  1.74%     -   16s
     0     0 16375.0432    0  144 16664.8046 16375.0432  1.74%     -   17s
     0     0 16375.3764    0  147 16664.8046 16375.3764  1.74%     -   17s
     0     0 16375.3765    0  149 16664.8046 16375.3765  1.74%     -   17s
     0     0 16382.3830    0  151 16664.8046 16382.3830  1.69%     -   18s
     0     0 16383.0428    0  167 16664.8046 16383.0428  1.69%     -   18s
     0     0 16383.7698    0  166 16664.8046 16383.7698  1.69%     -   18s
     0     0 16383.9207    0  168 16664.8046 16383.9207  1.69%     -   18s
     0     0 16383.9820    0  174 16664.8046 16383.9820  1.69%     -   18s
     0     0 16383.9822    0  175 16664.8046 16383.9822  1.69%     -   19s
     0     0 16386.6005    0  164 16664.8046 16386.6005  1.67%     -   19s
     0     0 16388.0143    0  173 16664.8046 16388.0143  1.66%     -   21s
     0     0 16388.0707    0  175 16664.8046 16388.0707  1.66%     -   21s
     0     0 16388.5829    0  166 16664.8046 16388.5829  1.66%     -   21s
H    0     0                    16664.451127 16388.5829  1.66%     -   22s
     0     0 16388.6309    0  167 16664.4511 16388.6309  1.66%     -   22s
     0     0 16388.6508    0  174 16664.4511 16388.6508  1.66%     -   22s
     0     0 16388.6622    0  174 16664.4511 16388.6622  1.65%     -   22s
     0     0 16389.1211    0  178 16664.4511 16389.1211  1.65%     -   23s
     0     0 16389.3138    0  171 16664.4511 16389.3138  1.65%     -   23s
     0     0 16389.3197    0  176 16664.4511 16389.3197  1.65%     -   23s
     0     0 16389.4652    0  183 16664.4511 16389.4652  1.65%     -   23s
H    0     0                    16610.650275 16389.4652  1.33%     -   24s
     0     0 16389.5542    0  172 16610.6503 16389.5542  1.33%     -   24s
     0     0 16389.5648    0  197 16610.6503 16389.5648  1.33%     -   24s
     0     0 16389.5905    0  197 16610.6503 16389.5905  1.33%     -   25s
     0     0 16389.6165    0  205 16610.6503 16389.6165  1.33%     -   25s
     0     0 16389.9042    0  201 16610.6503 16389.9042  1.33%     -   25s
     0     0 16389.9414    0  200 16610.6503 16389.9414  1.33%     -   26s
     0     0 16390.0551    0  195 16610.6503 16390.0551  1.33%     -   26s
     0     0 16390.2636    0  196 16610.6503 16390.2636  1.33%     -   26s
     0     0 16390.2651    0  199 16610.6503 16390.2651  1.33%     -   26s
     0     0 16390.2651    0  199 16610.6503 16390.2651  1.33%     -   27s
     0     2 16390.2651    0  199 16610.6503 16390.2651  1.33%     -   28s
     7    12 16391.4630    3  194 16610.6503 16391.1512  1.32%   107   30s
H   27    34                    16610.400862 16391.8622  1.32%   129   34s
H   31    34                    16553.923600 16391.8622  0.98%   118   34s

Cutting planes:
  Cover: 61
  MIR: 67
  StrongCG: 3
  GUB cover: 181
  Zero half: 4
  RLT: 2

Explored 39 nodes (7115 simplex iterations) in 34.34 seconds (80.12 work units)
Thread count was 12 (of 192 available processors)

Solution count 8: 16553.9 16610.4 16610.7 ... 16793.2

Optimal solution found (tolerance 1.00e-02)
Best objective 1.655392359986e+04, best bound 1.639201179522e+04, gap 0.9781%
